(set-info :smt-lib-version 2.6)
(set-logic QF_S)
(set-info :source |
Generated by: Joel Day, Thorsten Ehlers, Mitja Kulczynski, Federico Mora, Florin Manea, Dirk Nowotka, Danny Poulsen, Zhengyang Lu
Application: Test WOORPJE
Target solver: WOORPJE
Publications: Day, J. D., Ehlers, T., Kulczynski, M., Manea, F., Nowotka, D., & Poulsen, D. B. (2019). On solving word equations using SAT. In RP 2019
Description: Transoformed and expanded from Track02
|)
(set-info :license "https://creativecommons.org/licenses/by/4.0/")
(set-info :category "random")
(set-info :status unknown)

(declare-fun N () String)
(declare-fun T () String)
(declare-fun I () String)
(declare-fun H () String)
(declare-fun R () String)
(declare-fun K () String)
(declare-fun U () String)
(declare-fun G () String)
(declare-fun L () String)
(declare-fun M () String)
(declare-fun P () String)
(declare-fun Q () String)
(assert (= (str.++  I H H I H H I "a" H I H H I H I H "a" I H H I H H I "a" H I H H I H I H "b" L "a" M M L L "b" P P "b" P Q "b" T)  (str.++  "a" H I "a" I I I I I I G I H H I K L "a" K L "aba" N M "aa" N M "ab" R R "b" U U "baa") ))
(check-sat)

(exit)
